# Solution for model count
# Objective value = 10
z#1 1
z#2 1
z#3 1
z#4 1
z#5 1
z#6 0
z#7 0
z#8 0
z#9 0
z#10 0
z#11 1
z#12 0
z#13 1
z#14 1
z#15 0
z#16 0
z#17 1
z#18 0
z#19 0
z#20 0
z#21 0
z#22 0
z#23 0
z#24 1
x#24 1271
x#23 0
x#22 0
x#21 0
x#20 0
x#19 0
x#18 0
x#17 956
x#16 0
x#15 0
x#14 1440
x#13 1107
x#12 0
x#11 991
x#10 0
x#9 0
x#8 0
x#7 0
x#6 0
x#5 1316
x#4 855
x#3 96
x#2 1196
x#1 772
